p cnf 23 52
a 16 14 0
e 1 2 3 4 5 6 7 8 9 10 11 12 13 15 17 18 19 20 21 22 23 0
-1 2 -3 0
1 -2 -3 0
-1 -2 3 0
1 2 3 0
5 -4 0
5 -2 0
4 2 -5 0
3 5 -6 0
-3 -5 -6 0
3 -5 6 0
-3 5 6 0
-7 -1 0
-7 1 0
-8 -7 0
-8 2 0
7 -2 8 0
10 8 0
10 -9 0
-8 9 -10 0
11 -6 0
11 10 0
6 -10 -11 0
12 -13 0
-12 -13 0
15 -14 0
15 -7 0
14 7 -15 0
-17 16 0
-17 -4 0
-16 4 17 0
18 -15 0
18 17 0
15 -17 -18 0
19 13 0
19 18 0
-13 -18 -19 0
21 -20 0
21 -8 0
20 8 -21 0
-19 21 -22 0
19 -21 -22 0
-19 -21 22 0
19 21 22 0
23 11 0
23 22 0
-11 -22 -23 0
23 4 14 9 0
-2 -21 -8 0
-6 -17 -18 0
2 16 -4 -23 13 0
-16 -12 4 0
23 0
